unsat
(define-fun f ((x (_ BitVec 32))) (_ BitVec 32) (bvand (bvnot x) (bvadd x #b00000000000000000000000000000001)))
5.72user 0.00system 0:05.73elapsed 99%CPU (0avgtext+0avgdata 44544maxresident)k
8inputs+8outputs (0major+5683minor)pagefaults 0swaps
